min: 793 x1 + 941 x2 + 464 x3 + 30 x4 + 462 x5 + 579 x6 + 928 x7 + 341 x8 + 654 x9 + 866 x10;

x5 + x4 + x6 >= 1;
x8 + x10 + x7 + x3 >= 1;
x2 + x4 >= 1;
x10 + x1 >= 1;
x4 + x5 + x1 >= 1;
x4 + x8 + x10 >= 1;
x10 + x6 + x5 >= 1;
x4 + x1 + x7 + x10 >= 1;
x9 + x4 >= 1;
x7 >= 1;
x4 + x1 + x9 >= 1;
x6 + x4 + x9 + x7 >= 1;
x3 + x4 + x1 >= 1;
x7 + x10 + x8 + x6 >= 1;
x2 + x9 >= 1;
x6 >= 1;
x3 + x4 + x10 + x1 >= 1;
x9 + x5 + x10 >= 1;
x7 + x8 + x5 + x10 >= 1;
x6 + x9 >= 1;
x7 + x3 + x10 >= 1;
x6 >= 1;
x10 >= 1;
x5 + x9 + x2 >= 1;
x1 + x10 + x5 >= 1;
x4 + x6 + x5 + x1 >= 1;
x9 + x3 + x7 + x8 >= 1;
x7 + x9 + x3 + x5 >= 1;
x3 >= 1;
x5 + x10 + x3 + x6 >= 1;

bin x1, x2, x3, x4, x5, x6, x7, x8, x9, x10;
